data/benchmarks/bayes/75-14-6-q.cnf
p cnf 924 927
c weights 0.576902 0.423098 1 1 1 1 1 1 1 1 1 1 1 1 1 1 1 1 1 1 1 1 1 1 1 1 1 1 1 1 1 1 1 1 1 1 1 1 1 1 1 1 1 1 1 1 1 1 1 1 1 1 1 1 1 1 1 1 1 1 1 1 1 1 1 1 1 1 1 1 1 1 1 1 1 1 1 1 1 1 1 1 1 1 1 1 1 1 1 1 1 1 1 1 1 1 1 1 1 1 1 1 1 1 1 1 1 1 1 1 1 1 1 1 1 1 1 1 1 1 1 1 1 1 1 1 1 1 1 1 1 1 1 1 1 1 1 1 1 1 1 1 1 1 1 1 1 1 1 1 1 1 1 1 1 1 1 1 1 1 1 1 1 1 1 1 1 1 1 1 1 1 1 1 1 1 1 1 1 1 1 1 1 1 1 1 1 1 1 1 1 1 1 1 1 1 1 1 1 1 1 1 1 1 1 1 1 1 1 1 1 1 1 1 1 1 1 1 1 1 1 1 1 1 1 1 1 1 1 1 1 1 1 1 1 1 1 1 1 1 1 1 1 1 1 1 1 1 1 1 1 1 1 1 1 1 1 1 1 1 1 1 1 1 1 1 1 1 1 1 1 1 1 1 1 1 1 1 1 1 1 1 1 1 1 1 1 1 1 1 1 1 1 1 1 1 1 1 1 1 1 1 1 1 1 1 1 1 1 1 1 1 1 1 1 1 1 1 1 1 1 1 1 1 1 1 1 1 1 1 1 1 1 1 1 1 1 1 1 1 1 1 1 1 1 1 1 1 1 1 1 1 1 1 1 1 1 1 1 1 1 1 1 1 1 1 1 1 1 1 1 1 1 1 1 1 1 1 1 1 1 1 1 1 1 1 1 1 1 1 1 1 0.5 0.5 0.5 0.5 0.5 0.5 0.5 0.5 0.5 0.5 0.5 0.5 0.5 0.5 0.5 0.5 0.5 0.5 0.5 0.5 0.5 0.5 0.5 0.5 0.5 0.5 0.5 0.5 0.5 0.5 0.5 0.5 0.5 0.5 0.5 0.5 0.5 0.5 0.5 0.5 0.0334324 0.9665676 0.78806 0.21194000000000002 0.5 0.5 0.5 0.5 0.5 0.5 0.5 0.5 0.5 0.5 0.5 0.5 0.663506 0.33649399999999996 0.285562 0.714438 0.761395 0.23860499999999996 0.398146 0.601854 0.992844 0.007156000000000051 0.517384 0.48261600000000004 0.367518 0.632482 0.558807 0.44119299999999995 0.5 0.5 0.5 0.5 0.5 0.5 0.5 0.5 0.5 0.5 0.5 0.5 0.5 0.5 0.5 0.5 0.5 0.5 0.5 0.5 0.5 0.5 0.5 0.5 0.669406 0.33059400000000005 0.869579 0.130421 0.289641 0.710359 0.756011 0.243989 0.5 0.5 0.5 0.5 0.5 0.5 0.5 0.5 0.376783 0.623217 0.849571 0.15042900000000003 0.335047 0.664953 0.744301 0.255699 0.5 0.5 0.5 0.5 0.5 0.5 0.5 0.5 0.5 0.5 0.5 0.5 0.5 0.5 0.5 0.5 0.5 0.5 0.5 0.5 0.5 0.5 0.5 0.5 0.5 0.5 0.5 0.5 0.5 0.5 0.5 0.5 0.5 0.5 0.5 0.5 0.5 0.5 0.5 0.5 0.5 0.5 0.5 0.5 0.5 0.5 0.5 0.5 0.5 0.5 0.5 0.5 0.5 0.5 0.5 0.5 0.5 0.5 0.5 0.5 0.409966 0.590034 0.100573 0.899427 0.963797 0.036202999999999985 0.964229 0.035771 0.5 0.5 0.5 0.5 0.5 0.5 0.5 0.5 0.5 0.5 0.5 0.5 0.5 0.5 0.5 0.5 0.5 0.5 0.5 0.5 0.5 0.5 0.5 0.5 0.5 0.5 0.5 0.5 0.5 0.5 0.5 0.5 0.0906551 0.9093449 0.0160657 0.9839343 0.302608 0.697392 0.320278 0.6797219999999999 0.712574 0.28742599999999996 0.42085 0.57915 0.813653 0.18634700000000004 0.676803 0.32319699999999996 0.308478 0.691522 0.696824 0.303176 0.724099 0.27590099999999995 0.523413 0.476587 0.5 0.5 0.5 0.5 0.5 0.5 0.5 0.5 0.339323 0.660677 0.125148 0.874852 0.549895 0.450105 0.0211088 0.9788912 0.5 0.5 0.5 0.5 0.5 0.5 0.5 0.5 0.839713 0.16028699999999996 0.354024 0.645976 0.142321 0.857679 0.674301 0.32569899999999996 0.74188 0.25812 0.854895 0.14510500000000004 0.5 0.5 0.5 0.5 0.5 0.5 0.5 0.5 0.5 0.5 0.5 0.5 0.5 0.5 0.5 0.5 0.5 0.5 0.5 0.5 0.5 0.5 0.5 0.5 0.5 0.5 0.5 0.5 0.5 0.5 0.5 0.5 0.5 0.5 0.5 0.5 0.5 0.5 0.5 0.5 0.5 0.5 0.5 0.5 0.5 0.5 0.5 0.5 0.561774 0.438226 0.134496 0.865504 0.737693 0.26230699999999996 0.790296 0.209704 0.5 0.5 0.5 0.5 0.5 0.5 0.5 0.5 0.5 0.5 0.5 0.5 0.5 0.5 0.5 0.5 0.5 0.5 0.5 0.5 0.5 0.5 0.5 0.5 0.5 0.5 0.5 0.5 0.5 0.5 0.5 0.5 0.5 0.5 0.5 0.5 0.5 0.5 0.5 0.5 0.5 0.5 0.5 0.5 0.5 0.5 0.5 0.5 0.5 0.5 0.5 0.5 0.5 0.5 0.5 0.5 0.5 0.5 0.5 0.5 0.905673 0.09432700000000005 0.714353 0.285647 0.0622924 0.9377076 0.450759 0.549241 0.5 0.5 0.5 0.5 0.5 0.5 0.5 0.5 0.5 0.5 0.5 0.5 0.5 0.5 0.5 0.5 0.089776 0.910224 0.432034 0.567966 0.494635 0.5053650000000001 0.874178 0.125822 0.214372 0.785628 0.396272 0.603728 0.0556577 0.9443423 0.644184 0.355816 0.5 0.5 0.5 0.5 0.5 0.5 0.5 0.5 0.5 0.5 0.5 0.5 0.5 0.5 0.5 0.5 0.5 0.5 0.5 0.5 0.5 0.5 0.5 0.5 0.5 0.5 0.5 0.5 0.5 0.5 0.5 0.5 0.5 0.5 0.5 0.5 0.5 0.5 0.5 0.5 0.5 0.5 0.5 0.5 0.5 0.5 0.5 0.5 0.5 0.5 0.5 0.5 0.5 0.5 0.5 0.5 0.5 0.5 0.5 0.5 0.5 0.5 0.5 0.5 0.5 0.5 0.5 0.5 0.5 0.5 0.5 0.5 0.5 0.5 0.5 0.5 0.5 0.5 0.5 0.5 0.5 0.5 0.5 0.5 0.5 0.5 0.5 0.5 0.5 0.5 0.5 0.5 0.5 0.5 0.5 0.5 0.5 0.5 0.5 0.5 0.49609 0.5039100000000001 0.381605 0.618395 0.618326 0.38167399999999996 0.3592 0.6408 0.638834 0.361166 0.110014 0.8899859999999999 0.743279 0.256721 0.438914 0.561086 0.5 0.5 0.5 0.5 0.5 0.5 0.5 0.5 0.5 0.5 0.5 0.5 0.5 0.5 0.5 0.5 0.5 0.5 0.5 0.5 0.5 0.5 0.5 0.5 0.5 0.5 0.5 0.5 0.5 0.5 0.5 0.5 0.244512 0.7554879999999999 0.0947937 0.9052063 0.51326 0.48673999999999995 0.603712 0.396288 0.5 0.5 0.5 0.5 0.5 0.5 0.5 0.5 0.5 0.5 0.5 0.5 0.5 0.5 0.5 0.5 0.5 0.5 0.5 0.5 0.5 0.5 0.5 0.5 0.5 0.5 0.5 0.5 0.068777 0.931223 0.0609983 0.9390017 0.483796 0.516204 0.747274 0.252726 0.5 0.5 0.5 0.5 0.5 0.5 0.5 0.5 0.5 0.5 0.5 0.5 0.5 0.5 0.5 0.5 0.5 0.5 0.5 0.5 0.5 0.5 0.5 0.5 0.350824 0.649176 0.209804 0.790196 0.913002 0.08699800000000002 0.501297 0.498703 0.5 0.5 0.5 0.5 0.5 0.5 0.5 0.5 0.532844 0.467156 0.932558 0.067442 0.936373 0.06362699999999999 0.0166394 0.9833606 0.5 0.5 0.5 0.5 0.5 0.5 0.5 0.5 0.915737 0.08426299999999998 0.692586 0.30741399999999997 0.781553 0.21844699999999995 0.259657 0.740343 0.5 0.5 0.5 0.5 0.5 0.5 0.5 0.5 0.5 0.5 0.5 0.5 0.198931 0.801069 0.319778 0.680222 0.0730861 0.9269139 0.497401 0.502599 0.729632 0.27036800000000005 0.361182 0.638818 0.813814 0.18618599999999996 0.262475 0.737525 0.5 0.5 0.5 0.5 0.5 0.5 0.5 0.5 0.149102 0.8508979999999999 0.571163 0.428837 0.669113 0.33088700000000004 0.0648388 0.9351612 0.5 0.5 0.5 0.5 0.5 0.5 0.5 0.5 0.5 0.5 0.5 0.5 0.5 0.5 0.5 0.5 0.5 0.5 0.5 0.5 0.5 0.5 0.5 0.5 0.5 0.5 0.5 0.5 0.5 0.5 0.5 0.5 0.5 0.5 0.5 0.5 0.5 0.5 0.5 0.5 0.5 0.5 0.5 0.5 0.5 0.5 0.5 0.5 0.5 0.5 0.5 0.5 0.5 0.5 0.5 0.5 0.160193 0.839807 0.279312 0.720688 0.58434 0.41566000000000003 0.531213 0.46878699999999995 0.150245 0.849755 0.84126 0.15874 0.788508 0.211492 0.0359292 0.9640708 0.5 0.5 0.5 0.5 0.337157 0.6628430000000001 0.852617 0.14738300000000004 0.497989 0.502011 0.712396 0.28760399999999997 0.886112 0.11388799999999999 0.36675 0.63325 0.83896 0.16103999999999996 0.0391411 0.9608589 0.968019 0.03198100000000004 0.763333 0.23666699999999996 0.910604 0.08939600000000003 0.161918 0.838082 0.467753 0.532247 0.680312 0.31968799999999997 0.661382 0.338618 0.304668 0.6953320000000001 0.940693 0.059307 0.889008 0.11099199999999998 0.371718 0.628282 0.875138 0.12486200000000003 0.5 0.5 0.5 0.5 0.5 0.5 0.5 0.5 0.774526 0.22547399999999995 0.656234 0.343766 0.433223 0.566777 0.486922 0.5130779999999999 0.5 0.5 0.5 0.5 0.5 0.5 0.5 0.5 0.5 0.5 0.5 0.5 0.5 0.5 0.5 0.5 0.5 0.5 0.5 0.5 0.5 0.5 0.5 0.5 0.5 0.5 0.5 0.5 0.5 0.5 0.5 0.5 0.5 0.5 0.5 0.5 0.5 0.5 0.5 0.5 0.473793 0.526207 0.712721 0.28727899999999995 0.288462 0.711538 0.989029 0.010970999999999953 0.5 0.5 0.5 0.5 0.5 0.5 0.5 0.5 0.5 0.5 0.5 0.5 0.5 0.5 0.5 0.5 0.5 0.5 0.5 0.5 0.745293 0.254707 0.31897 0.68103 0.395047 0.6049530000000001 0.97512 0.024880000000000013 0.5 0.5 0.5 0.5 0.5 0.5 0.5 0.5 0.5 0.5 0.5 0.5 0.5 0.5 0.5 0.5 0.5 0.5 0.5 0.5 0.5 0.5 0.5 0.5 0.5 0.5 0.5 0.5 0.5 0.5 0.5 0.5 0.5 0.5 0.5 0.5 0.5 0.5 0.5 0.5 0.862455 0.13754500000000003 0.830898 0.16910199999999997 0.215974 0.784026 0.837574 0.16242599999999996 0.5 0.5 0.5 0.5 0.5 0.5 0.5 0.5 0.5 0.5 0.5 0.5 0.5 0.5 0.5 0.5 0.5 0.5 0.5 0.5 0.5 0.5 0.5 0.5 0.5 0.5 0.5 0.5 0.5 0.5 0.5 0.5 0.5 0.5 0.5 0.5 0.5 0.5 0.5 0.5 0.5 0.5 0.5 0.5 0.5 0.5 0.5 0.5 0.5 0.5 0.5 0.5 0.5 0.5 0.5 0.5 0.5 0.5 0.5 0.5 0.167808 0.832192 0.349123 0.6508769999999999 0.0601146 0.9398854 0.51589 0.48411000000000004 0.5 0.5 0.5 0.5 0.5 0.5 0.5 0.5 0.5 0.5 0.5 0.5 0.5 0.5 0.5 0.5 0.5 0.5 0.5 0.5 0.5 0.5 0.5 0.5 0.5 0.5 0.5 0.5 0.5 0.5 0.5 0.5 0.5 0.5 0.5 0.5 0.5 0.5 0.5 0.5 0.685392 0.314608 0.595679 0.40432100000000004 0.865217 0.134783 0.201282 0.798718 0.5 0.5 0.5 0.5 0.5 0.5 0.5 0.5 0.197812 0.802188 0.864688 0.135312 0.272442 0.7275579999999999 0.382825 0.617175 0.5 0.5 0.5 0.5 0.5 0.5 0.5 0.5 0.220139 0.779861 0.525863 0.47413700000000003 0.5 0.5 0.5 0.5 0.5 0.5 0.5 0.5 0.5 0.5 0.5 0.5 0.5 0.5 0.5 0.5 0.5 0.5 0.5 0.5 0.5 0.5 0.5 0.5 0.5 0.5 0.5 0.5 0.5 0.5 0.5 0.5 0.5 0.5 0.5 0.5 0.5 0.5 0.5 0.5 0.5 0.5 0.5 0.5 0.5 0.5 0.5 0.5 0.0631275 0.9368725 0.698357 0.301643 0.433927 0.566073 0.55108 0.44892 0.5 0.5 0.5 0.5 0.5 0.5 0.5 0.5 0.5 0.5 0.5 0.5 0.5 0.5 0.5 0.5 0.48616 0.5138400000000001 0.473754 0.526246 0.939869 0.060131000000000046 0.220061 0.7799389999999999 0.5 0.5 0.5 0.5 0.5 0.5 0.5 0.5 0.5 0.5 0.5 0.5 0.5 0.5 0.5 0.5 0.5 0.5 0.5 0.5 0.5 0.5 0.5 0.5 0.5 0.5 0.5 0.5 0.5 0.5 0.5 0.5 0.5 0.5 0.5 0.5 0.5 0.5 0.5 0.5 0.5 0.5 0.5 0.5 0.5 0.5 0.5 0.5 0.5 0.5 0.5 0.5 0.957941 0.04205899999999996 0.665173 0.334827 0.21436 0.78564 0.590551 0.40944899999999995 0.606843 0.393157 0.286289 0.713711 0.80568 0.19432000000000005 0.433252 0.566748 0.5 0.5 0.5 0.5 0.5 0.5 0.5 0.5 0.717422 0.282578 0.60368 0.39632 0.445737 0.554263 0.537041 0.462959 0.5 0.5 0.5 0.5 0.5 0.5 0.5 0.5 0.118129 0.881871 0.34014 0.65986 0.0773006 0.9226994 0.00156973 0.99843027 0.5 0.5 0.5 0.5 0.5 0.5 0.5 0.5 0.5 0.5 0.5 0.5 0.5 0.5 0.5 0.5 0.5 0.5 0.5 0.5 0.5 0.5 0.5 0.5 0.5 0.5 0.5 0.5 0.5 0.5 0.5 0.5 0.5 0.5 0.5 0.5 0.5 0.5 0.5 0.5 0.5 0.5 0.5 0.5 0.500247 0.499753 0.707407 0.292593 0.186676 0.8133239999999999 0.331578 0.6684220000000001 0.5 0.5 0.5 0.5 0.5 0.5 0.5 0.5 0.5 0.5 0.5 0.5 0.5 0.5 0.5 0.5 0.5 0.5 0.5 0.5 0.5 0.5 0.5 0.5 0.5 0.5 0.5 0.5 0.5 0.5 0.5 0.5 0.5 0.5 0.5 0.5 0.5 0.5 0.5 0.5 0.982196 0.017804000000000042 0.803777 0.19622300000000004 0.627655 0.37234500000000004 0.168873 0.831127 0.5 0.5 0.5 0.5 0.5 0.5 0.5 0.5 0.5 0.5 0.5 0.5 0.5 0.5 0.5 0.5 0.5 0.5 0.5 0.5 0.5 0.5 0.5 0.5 0.547306 0.45269400000000004 0.90645 0.09355000000000002 0.586079 0.413921 0.115309 0.884691 0.800491 0.19950900000000005 0.220338 0.779662 0.090565 0.909435 0.72074 0.27925999999999995
-1 -2 0
1 2 0
-2 -3 0
2 3 0
-3 4 0
3 -4 0
-4 5 0
4 -5 0
-5 -6 0
5 6 0
-6 7 0
6 -7 0
-7 -8 0
7 8 0
-8 -9 0
8 9 0
-9 10 0
9 -10 0
-10 11 0
10 -11 0
-11 -217 12 0
-11 217 -12 0
11 -218 12 0
11 218 -12 0
-12 -13 0
12 13 0
-13 -14 0
13 14 0
-1 -15 0
1 15 0
-15 -2 -225 16 0
-15 -2 225 -16 0
-15 2 -226 16 0
-15 2 226 -16 0
15 -2 -227 16 0
15 -2 227 -16 0
15 2 -228 16 0
15 2 228 -16 0
-16 -3 -229 17 0
-16 -3 229 -17 0
-16 3 -230 17 0
-16 3 230 -17 0
16 -3 -231 17 0
16 -3 231 -17 0
16 3 -232 17 0
16 3 232 -17 0
-17 -4 -18 0
-17 4 18 0
17 -4 18 0
17 4 18 0
-18 -5 -19 0
-18 5 19 0
18 -5 19 0
18 5 19 0
-19 -6 20 0
-19 6 20 0
19 -6 -20 0
19 6 20 0
-20 -7 -245 21 0
-20 -7 245 -21 0
-20 7 -246 21 0
-20 7 246 -21 0
20 -7 -247 21 0
20 -7 247 -21 0
20 7 -248 21 0
20 7 248 -21 0
-21 -8 22 0
-21 8 -22 0
21 -8 22 0
21 8 -22 0
-22 -9 -253 23 0
-22 -9 253 -23 0
-22 9 -254 23 0
-22 9 254 -23 0
22 -9 -255 23 0
22 -9 255 -23 0
22 9 -256 23 0
22 9 256 -23 0
-23 -10 -24 0
-23 10 24 0
23 -10 -24 0
23 10 24 0
-24 -11 -25 0
-24 11 -25 0
24 -11 -25 0
24 11 25 0
-25 -12 -26 0
-25 12 -26 0
25 -12 26 0
25 12 -26 0
-26 -13 27 0
-26 13 -27 0
26 -13 27 0
26 13 27 0
-27 -14 28 0
-27 14 -28 0
27 -14 28 0
27 14 -28 0
-15 29 0
15 -29 0
-29 -16 -30 0
-29 16 -30 0
29 -16 30 0
29 16 -30 0
-30 -17 31 0
-30 17 -31 0
30 -17 -31 0
30 17 -31 0
-31 -18 -287 32 0
-31 -18 287 -32 0
-31 18 -288 32 0
-31 18 288 -32 0
31 -18 -289 32 0
31 -18 289 -32 0
31 18 -290 32 0
31 18 290 -32 0
-32 -19 -33 0
-32 19 33 0
32 -19 -33 0
32 19 -33 0
-33 -20 -34 0
-33 20 34 0
33 -20 34 0
33 20 34 0
-34 -21 35 0
-34 21 35 0
34 -21 -35 0
34 21 -35 0
-35 -22 -36 0
-35 22 -36 0
35 -22 36 0
35 22 -36 0
-36 -23 -307 37 0
-36 -23 307 -37 0
-36 23 -308 37 0
-36 23 308 -37 0
36 -23 -309 37 0
36 -23 309 -37 0
36 23 -310 37 0
36 23 310 -37 0
-37 -24 -311 38 0
-37 -24 311 -38 0
-37 24 -312 38 0
-37 24 312 -38 0
37 -24 -313 38 0
37 -24 313 -38 0
37 24 -314 38 0
37 24 314 -38 0
-38 -25 -315 39 0
-38 -25 315 -39 0
-38 25 -316 39 0
-38 25 316 -39 0
38 -25 -317 39 0
38 -25 317 -39 0
38 25 -318 39 0
38 25 318 -39 0
-39 -26 -40 0
-39 26 -40 0
39 -26 40 0
39 26 40 0
-40 -27 -323 41 0
-40 -27 323 -41 0
-40 27 -324 41 0
-40 27 324 -41 0
40 -27 -325 41 0
40 -27 325 -41 0
40 27 -326 41 0
40 27 326 -41 0
-41 -28 -42 0
-41 28 42 0
41 -28 42 0
41 28 42 0
-29 -331 43 0
-29 331 -43 0
29 -332 43 0
29 332 -43 0
-43 -30 -333 44 0
-43 -30 333 -44 0
-43 30 -334 44 0
-43 30 334 -44 0
43 -30 -335 44 0
43 -30 335 -44 0
43 30 -336 44 0
43 30 336 -44 0
-44 -31 -45 0
-44 31 -45 0
44 -31 45 0
44 31 -45 0
-45 -32 -46 0
-45 32 -46 0
45 -32 -46 0
45 32 46 0
-46 -33 -47 0
-46 33 47 0
46 -33 -47 0
46 33 -47 0
-47 -34 48 0
-47 34 -48 0
47 -34 48 0
47 34 -48 0
-48 -35 49 0
-48 35 -49 0
48 -35 49 0
48 35 -49 0
-49 -36 -50 0
-49 36 -50 0
49 -36 50 0
49 36 -50 0
-50 -37 -361 51 0
-50 -37 361 -51 0
-50 37 -362 51 0
-50 37 362 -51 0
50 -37 -363 51 0
50 -37 363 -51 0
50 37 -364 51 0
50 37 364 -51 0
-51 -38 52 0
-51 38 52 0
51 -38 -52 0
51 38 -52 0
-52 -39 -53 0
-52 39 -53 0
52 -39 53 0
52 39 53 0
-53 -40 -54 0
-53 40 -54 0
53 -40 -54 0
53 40 54 0
-54 -41 55 0
-54 41 -55 0
54 -41 -55 0
54 41 -55 0
-55 -42 56 0
-55 42 56 0
55 -42 56 0
55 42 -56 0
-43 57 0
43 -57 0
-57 -44 58 0
-57 44 -58 0
57 -44 -58 0
57 44 58 0
-58 -45 59 0
-58 45 59 0
58 -45 59 0
58 45 -59 0
-59 -46 -395 60 0
-59 -46 395 -60 0
-59 46 -396 60 0
-59 46 396 -60 0
59 -46 -397 60 0
59 -46 397 -60 0
59 46 -398 60 0
59 46 398 -60 0
-60 -47 61 0
-60 47 61 0
60 -47 61 0
60 47 -61 0
-61 -48 62 0
-61 48 62 0
61 -48 -62 0
61 48 -62 0
-62 -49 -407 63 0
-62 -49 407 -63 0
-62 49 -408 63 0
-62 49 408 -63 0
62 -49 -409 63 0
62 -49 409 -63 0
62 49 -410 63 0
62 49 410 -63 0
-63 -50 -411 64 0
-63 -50 411 -64 0
-63 50 -412 64 0
-63 50 412 -64 0
63 -50 -413 64 0
63 -50 413 -64 0
63 50 -414 64 0
63 50 414 -64 0
-64 -51 65 0
-64 51 65 0
64 -51 -65 0
64 51 65 0
-65 -52 -66 0
-65 52 -66 0
65 -52 -66 0
65 52 66 0
-66 -53 67 0
-66 53 67 0
66 -53 67 0
66 53 -67 0
-67 -54 -68 0
-67 54 68 0
67 -54 68 0
67 54 -68 0
-68 -55 -69 0
-68 55 69 0
68 -55 69 0
68 55 -69 0
-69 -56 70 0
-69 56 70 0
69 -56 -70 0
69 56 70 0
-57 -71 0
57 71 0
-71 -58 72 0
-71 58 -72 0
71 -58 -72 0
71 58 -72 0
-72 -59 -73 0
-72 59 73 0
72 -59 -73 0
72 59 -73 0
-73 -60 -74 0
-73 60 74 0
73 -60 -74 0
73 60 -74 0
-74 -61 -75 0
-74 61 75 0
74 -61 -75 0
74 61 -75 0
-75 -62 -76 0
-75 62 -76 0
75 -62 -76 0
75 62 76 0
-76 -63 77 0
-76 63 -77 0
76 -63 -77 0
76 63 77 0
-77 -64 -465 78 0
-77 -64 465 -78 0
-77 64 -466 78 0
-77 64 466 -78 0
77 -64 -467 78 0
77 -64 467 -78 0
77 64 -468 78 0
77 64 468 -78 0
-78 -65 -469 79 0
-78 -65 469 -79 0
-78 65 -470 79 0
-78 65 470 -79 0
78 -65 -471 79 0
78 -65 471 -79 0
78 65 -472 79 0
78 65 472 -79 0
-79 -66 -80 0
-79 66 -80 0
79 -66 80 0
79 66 -80 0
-80 -67 -81 0
-80 67 -81 0
80 -67 81 0
80 67 -81 0
-81 -68 -82 0
-81 68 82 0
81 -68 -82 0
81 68 -82 0
-82 -69 83 0
-82 69 83 0
82 -69 83 0
82 69 -83 0
-83 -70 -489 84 0
-83 -70 489 -84 0
-83 70 -490 84 0
-83 70 490 -84 0
83 -70 -491 84 0
83 -70 491 -84 0
83 70 -492 84 0
83 70 492 -84 0
-71 -85 0
71 85 0
-85 -72 86 0
-85 72 -86 0
85 -72 -86 0
85 72 86 0
-86 -73 87 0
-86 73 87 0
86 -73 -87 0
86 73 87 0
-87 -74 88 0
-87 74 -88 0
87 -74 -88 0
87 74 -88 0
-88 -75 -507 89 0
-88 -75 507 -89 0
-88 75 -508 89 0
-88 75 508 -89 0
88 -75 -509 89 0
88 -75 509 -89 0
88 75 -510 89 0
88 75 510 -89 0
-89 -76 -90 0
-89 76 90 0
89 -76 90 0
89 76 -90 0
-90 -77 91 0
-90 77 91 0
90 -77 91 0
90 77 -91 0
-91 -78 92 0
-91 78 92 0
91 -78 -92 0
91 78 92 0
-92 -79 -523 93 0
-92 -79 523 -93 0
-92 79 -524 93 0
-92 79 524 -93 0
92 -79 -525 93 0
92 -79 525 -93 0
92 79 -526 93 0
92 79 526 -93 0
-93 -80 -94 0
-93 80 94 0
93 -80 -94 0
93 80 -94 0
-94 -81 -531 95 0
-94 -81 531 -95 0
-94 81 -532 95 0
-94 81 532 -95 0
94 -81 -533 95 0
94 -81 533 -95 0
94 81 -534 95 0
94 81 534 -95 0
-95 -82 -96 0
-95 82 96 0
95 -82 96 0
95 82 96 0
-96 -83 -539 97 0
-96 -83 539 -97 0
-96 83 -540 97 0
-96 83 540 -97 0
96 -83 -541 97 0
96 -83 541 -97 0
96 83 -542 97 0
96 83 542 -97 0
-97 -84 -98 0
-97 84 98 0
97 -84 98 0
97 84 98 0
-85 99 0
85 -99 0
-99 -86 -549 100 0
-99 -86 549 -100 0
-99 86 -550 100 0
-99 86 550 -100 0
99 -86 -551 100 0
99 -86 551 -100 0
99 86 -552 100 0
99 86 552 -100 0
-100 -87 -553 101 0
-100 -87 553 -101 0
-100 87 -554 101 0
-100 87 554 -101 0
100 -87 -555 101 0
100 -87 555 -101 0
100 87 -556 101 0
100 87 556 -101 0
-101 -88 -102 0
-101 88 -102 0
101 -88 102 0
101 88 -102 0
-102 -89 -561 103 0
-102 -89 561 -103 0
-102 89 -562 103 0
-102 89 562 -103 0
102 -89 -563 103 0
102 -89 563 -103 0
102 89 -564 103 0
102 89 564 -103 0
-103 -90 -104 0
-103 90 -104 0
103 -90 -104 0
103 90 104 0
-104 -91 105 0
-104 91 -105 0
104 -91 -105 0
104 91 105 0
-105 -92 106 0
-105 92 106 0
105 -92 -106 0
105 92 -106 0
-106 -93 -107 0
-106 93 107 0
106 -93 -107 0
106 93 -107 0
-107 -94 -108 0
-107 94 -108 0
107 -94 108 0
107 94 108 0
-108 -95 109 0
-108 95 -109 0
108 -95 109 0
108 95 -109 0
-109 -96 110 0
-109 96 -110 0
109 -96 110 0
109 96 110 0
-110 -97 -593 111 0
-110 -97 593 -111 0
-110 97 -594 111 0
-110 97 594 -111 0
110 -97 -595 111 0
110 -97 595 -111 0
110 97 -596 111 0
110 97 596 -111 0
-111 -98 -597 112 0
-111 -98 597 -112 0
-111 98 -598 112 0
-111 98 598 -112 0
111 -98 -599 112 0
111 -98 599 -112 0
111 98 -600 112 0
111 98 600 -112 0
-99 113 0
99 -113 0
-113 -100 -603 114 0
-113 -100 603 -114 0
-113 100 -604 114 0
-113 100 604 -114 0
113 -100 -605 114 0
113 -100 605 -114 0
113 100 -606 114 0
113 100 606 -114 0
-114 -101 -607 115 0
-114 -101 607 -115 0
-114 101 -608 115 0
-114 101 608 -115 0
114 -101 -609 115 0
114 -101 609 -115 0
114 101 -610 115 0
114 101 610 -115 0
-115 -102 -611 116 0
-115 -102 611 -116 0
-115 102 -612 116 0
-115 102 612 -116 0
115 -102 -613 116 0
115 -102 613 -116 0
115 102 -614 116 0
115 102 614 -116 0
-116 -103 -615 117 0
-116 -103 615 -117 0
-116 103 -616 117 0
-116 103 616 -117 0
116 -103 -617 117 0
116 -103 617 -117 0
116 103 -618 117 0
116 103 618 -117 0
-117 -104 -619 118 0
-117 -104 619 -118 0
-117 104 -620 118 0
-117 104 620 -118 0
117 -104 -621 118 0
117 -104 621 -118 0
117 104 -622 118 0
117 104 622 -118 0
-118 -105 119 0
-118 105 -119 0
118 -105 -119 0
118 105 -119 0
-119 -106 -627 120 0
-119 -106 627 -120 0
-119 106 -628 120 0
-119 106 628 -120 0
119 -106 -629 120 0
119 -106 629 -120 0
119 106 -630 120 0
119 106 630 -120 0
-120 -107 121 0
-120 107 121 0
120 -107 121 0
120 107 -121 0
-121 -108 122 0
-121 108 -122 0
121 -108 122 0
121 108 122 0
-122 -109 -123 0
-122 109 123 0
122 -109 -123 0
122 109 123 0
-123 -110 -124 0
-123 110 -124 0
123 -110 -124 0
123 110 124 0
-124 -111 -125 0
-124 111 125 0
124 -111 125 0
124 111 125 0
-125 -112 -651 126 0
-125 -112 651 -126 0
-125 112 -652 126 0
-125 112 652 -126 0
125 -112 -653 126 0
125 -112 653 -126 0
125 112 -654 126 0
125 112 654 -126 0
-113 127 0
113 -127 0
-127 -114 128 0
-127 114 -128 0
127 -114 128 0
127 114 -128 0
-128 -115 129 0
-128 115 -129 0
128 -115 129 0
128 115 129 0
-129 -116 -665 130 0
-129 -116 665 -130 0
-129 116 -666 130 0
-129 116 666 -130 0
129 -116 -667 130 0
129 -116 667 -130 0
129 116 -668 130 0
129 116 668 -130 0
-130 -117 -131 0
-130 117 -131 0
130 -117 131 0
130 117 131 0
-131 -118 -132 0
-131 118 -132 0
131 -118 -132 0
131 118 132 0
-132 -119 -133 0
-132 119 133 0
132 -119 133 0
132 119 133 0
-133 -120 -134 0
-133 120 -134 0
133 -120 134 0
133 120 134 0
-134 -121 -135 0
-134 121 135 0
134 -121 135 0
134 121 135 0
-135 -122 -689 136 0
-135 -122 689 -136 0
-135 122 -690 136 0
-135 122 690 -136 0
135 -122 -691 136 0
135 -122 691 -136 0
135 122 -692 136 0
135 122 692 -136 0
-136 -123 -137 0
-136 123 -137 0
136 -123 137 0
136 123 -137 0
-137 -124 138 0
-137 124 -138 0
137 -124 138 0
137 124 -138 0
-138 -125 -139 0
-138 125 -139 0
138 -125 -139 0
138 125 139 0
-139 -126 -140 0
-139 126 140 0
139 -126 -140 0
139 126 -140 0
-127 -141 0
127 141 0
-141 -128 142 0
-141 128 -142 0
141 -128 -142 0
141 128 142 0
-142 -129 -143 0
-142 129 143 0
142 -129 -143 0
142 129 -143 0
-143 -130 144 0
-143 130 -144 0
143 -130 -144 0
143 130 144 0
-144 -131 -723 145 0
-144 -131 723 -145 0
-144 131 -724 145 0
-144 131 724 -145 0
144 -131 -725 145 0
144 -131 725 -145 0
144 131 -726 145 0
144 131 726 -145 0
-145 -132 -146 0
-145 132 -146 0
145 -132 146 0
145 132 -146 0
-146 -133 147 0
-146 133 -147 0
146 -133 147 0
146 133 147 0
-147 -134 148 0
-147 134 148 0
147 -134 -148 0
147 134 148 0
-148 -135 149 0
-148 135 149 0
148 -135 -149 0
148 135 149 0
-149 -136 150 0
-149 136 -150 0
149 -136 -150 0
149 136 -150 0
-150 -137 -747 151 0
-150 -137 747 -151 0
-150 137 -748 151 0
-150 137 748 -151 0
150 -137 -749 151 0
150 -137 749 -151 0
150 137 -750 151 0
150 137 750 -151 0
-151 -138 152 0
-151 138 152 0
151 -138 -152 0
151 138 152 0
-152 -139 -755 153 0
-152 -139 755 -153 0
-152 139 -756 153 0
-152 139 756 -153 0
152 -139 -757 153 0
152 -139 757 -153 0
152 139 -758 153 0
152 139 758 -153 0
-153 -140 -154 0
-153 140 -154 0
153 -140 154 0
153 140 -154 0
-141 -763 155 0
-141 763 -155 0
141 -764 155 0
141 764 -155 0
-155 -142 156 0
-155 142 -156 0
155 -142 156 0
155 142 156 0
-156 -143 157 0
-156 143 157 0
156 -143 -157 0
156 143 157 0
-157 -144 -158 0
-157 144 158 0
157 -144 -158 0
157 144 158 0
-158 -145 -159 0
-158 145 -159 0
158 -145 159 0
158 145 159 0
-159 -146 -160 0
-159 146 -160 0
159 -146 160 0
159 146 -160 0
-160 -147 -161 0
-160 147 161 0
160 -147 161 0
160 147 -161 0
-161 -148 -789 162 0
-161 -148 789 -162 0
-161 148 -790 162 0
-161 148 790 -162 0
161 -148 -791 162 0
161 -148 791 -162 0
161 148 -792 162 0
161 148 792 -162 0
-162 -149 -163 0
-162 149 163 0
162 -149 -163 0
162 149 163 0
-163 -150 -164 0
-163 150 164 0
163 -150 -164 0
163 150 -164 0
-164 -151 -801 165 0
-164 -151 801 -165 0
-164 151 -802 165 0
-164 151 802 -165 0
164 -151 -803 165 0
164 -151 803 -165 0
164 151 -804 165 0
164 151 804 -165 0
-165 -152 -166 0
-165 152 -166 0
165 -152 166 0
165 152 -166 0
-166 -153 -167 0
-166 153 -167 0
166 -153 167 0
166 153 -167 0
-167 -154 -168 0
-167 154 168 0
167 -154 168 0
167 154 168 0
-155 169 0
155 -169 0
-169 -156 -170 0
-169 156 170 0
169 -156 -170 0
169 156 -170 0
-170 -157 171 0
-170 157 171 0
170 -157 171 0
170 157 -171 0
-171 -158 -172 0
-171 158 172 0
171 -158 -172 0
171 158 -172 0
-172 -159 -831 173 0
-172 -159 831 -173 0
-172 159 -832 173 0
-172 159 832 -173 0
172 -159 -833 173 0
172 -159 833 -173 0
172 159 -834 173 0
172 159 834 -173 0
-173 -160 -835 174 0
-173 -160 835 -174 0
-173 160 -836 174 0
-173 160 836 -174 0
173 -160 -837 174 0
173 -160 837 -174 0
173 160 -838 174 0
173 160 838 -174 0
-174 -161 175 0
-174 161 175 0
174 -161 -175 0
174 161 175 0
-175 -162 -843 176 0
-175 -162 843 -176 0
-175 162 -844 176 0
-175 162 844 -176 0
175 -162 -845 176 0
175 -162 845 -176 0
175 162 -846 176 0
175 162 846 -176 0
-176 -163 -177 0
-176 163 177 0
176 -163 177 0
176 163 177 0
-177 -164 -851 178 0
-177 -164 851 -178 0
-177 164 -852 178 0
-177 164 852 -178 0
177 -164 -853 178 0
177 -164 853 -178 0
177 164 -854 178 0
177 164 854 -178 0
-178 -165 179 0
-178 165 179 0
178 -165 -179 0
178 165 -179 0
-179 -166 180 0
-179 166 -180 0
179 -166 -180 0
179 166 -180 0
-180 -167 -181 0
-180 167 -181 0
180 -167 -181 0
180 167 181 0
-181 -168 182 0
-181 168 182 0
181 -168 -182 0
181 168 182 0
-169 -183 0
169 183 0
-183 -170 -184 0
-183 170 184 0
183 -170 184 0
183 170 -184 0
-184 -171 -877 185 0
-184 -171 877 -185 0
-184 171 -878 185 0
-184 171 878 -185 0
184 -171 -879 185 0
184 -171 879 -185 0
184 171 -880 185 0
184 171 880 -185 0
-185 -172 -186 0
-185 172 -186 0
185 -172 186 0
185 172 186 0
-186 -173 187 0
-186 173 187 0
186 -173 -187 0
186 173 -187 0
-187 -174 -188 0
-187 174 -188 0
187 -174 188 0
187 174 -188 0
-188 -175 -189 0
-188 175 189 0
188 -175 -189 0
188 175 189 0
-189 -176 190 0
-189 176 190 0
189 -176 190 0
189 176 -190 0
-190 -177 -901 191 0
-190 -177 901 -191 0
-190 177 -902 191 0
-190 177 902 -191 0
190 -177 -903 191 0
190 -177 903 -191 0
190 177 -904 191 0
190 177 904 -191 0
-191 -178 -192 0
-191 178 -192 0
191 -178 -192 0
191 178 192 0
-192 -179 -193 0
-192 179 193 0
192 -179 -193 0
192 179 -193 0
-193 -180 194 0
-193 180 -194 0
193 -180 194 0
193 180 194 0
-194 -181 -917 195 0
-194 -181 917 -195 0
-194 181 -918 195 0
-194 181 918 -195 0
194 -181 -919 195 0
194 -181 919 -195 0
194 181 -920 195 0
194 181 920 -195 0
-195 -182 -921 196 0
-195 -182 921 -196 0
-195 182 -922 196 0
-195 182 922 -196 0
195 -182 -923 196 0
195 -182 923 -196 0
195 182 -924 196 0
195 182 924 -196 0
196 0
