data/benchmarks/bayes/75-14-6-q.gr
p tw 924 1121
87 553
194 917
67 68
177 190
99 100
26 39
136 149
150 749
51 361
59 73
159 160
8 9
89 562
118 131
40 41
77 90
131 726
100 101
97 593
132 133
151 802
101 554
92 106
192 193
20 248
41 42
111 595
151 164
73 74
46 395
40 324
23 253
33 47
94 533
100 604
83 542
110 123
133 134
173 835
162 844
49 409
51 64
129 667
16 232
125 139
74 75
95 534
106 107
143 156
63 411
66 80
25 317
115 610
166 167
174 836
15 16
60 396
104 619
47 48
125 651
158 172
43 334
7 21
107 108
86 552
99 113
106 628
148 792
48 49
80 81
40 54
135 691
64 411
118 620
132 146
81 82
111 599
25 38
136 692
73 87
190 901
173 174
22 23
16 227
165 179
112 600
14 28
114 115
182 924
106 120
88 508
7 245
55 56
103 618
47 61
147 148
36 308
139 153
89 561
79 526
131 725
152 757
151 801
80 94
172 833
101 553
75 510
111 594
165 803
172 186
100 603
94 532
39 318
83 541
137 750
173 834
50 364
181 182
22 256
129 666
173 187
84 97
15 226
176 845
63 410
176 189
164 852
196 921
24 311
60 395
77 466
114 604
158 171
43 333
97 542
117 130
86 551
106 627
160 836
21 22
147 161
58 71
148 791
116 668
83 491
113 114
150 163
135 690
118 619
132 145
54 55
91 104
171 878
111 598
30 335
84 492
146 147
32 45
65 469
165 178
87 88
124 137
181 918
63 414
179 180
106 119
65 78
114 608
88 89
103 617
120 121
157 170
6 19
180 181
177 902
36 307
37 361
29 30
144 725
139 152
61 62
79 525
98 111
21 35
121 122
152 756
153 154
80 93
2 3
113 127
39 52
27 325
145 726
172 832
62 63
75 509
111 593
94 95
165 802
131 144
172 185
54 68
175 843
13 27
39 317
3 4
93 526
137 749
35 36
22 255
23 309
72 85
32 287
105 119
146 160
95 96
102 611
15 225
127 128
164 177
139 758
176 844
63 409
87 101
187 188
46 60
164 851
36 37
77 465
114 603
68 69
179 193
7 248
28 42
97 541
128 129
151 750
160 161
11 218
161 791
120 134
160 835
79 93
69 70
100 552
101 102
116 667
83 490
61 75
120 628
161 162
20 34
162 792
10 11
153 167
64 467
2 16
59 398
102 103
171 877
30 334
94 108
194 195
53 67
43 44
35 49
135 136
181 917
127 141
38 51
185 878
62 408
86 100
76 77
24 314
114 607
196 924
68 82
27 41
38 316
21 245
177 901
144 724
160 174
117 618
100 556
101 115
12 25
60 74
145 725
27 324
81 533
165 801
101 609
1 15
3 232
13 26
39 316
93 525
110 596
23 308
105 118
65 472
139 757
112 651
9 10
89 509
46 59
99 550
151 749
138 151
178 852
195 923
38 311
19 32
161 790
37 364
79 92
117 622
100 551
122 691
134 135
83 489
120 627
2 226
171 184
20 33
98 599
130 668
75 76
64 466
59 397
113 606
31 289
112 125
30 333
16 17
175 846
53 66
103 561
44 335
108 109
32 290
145 158
102 614
70 491
96 540
37 314
79 469
49 50
185 877
62 407
86 99
116 616
109 110
159 834
195 918
178 191
27 40
38 315
92 524
50 51
144 723
117 617
82 83
119 132
42 56
100 555
142 143
191 902
23 24
134 148
60 73
81 532
83 84
102 564
115 116
101 608
152 165
75 89
41 325
175 176
34 48
110 595
24 25
93 524
78 472
164 804
93 106
23 307
16 30
116 117
37 309
108 122
139 756
67 81
89 508
57 58
116 611
167 168
89 90
9 256
99 549
126 139
49 63
153 758
149 150
159 173
8 22
178 851
195 922
30 31
161 789
21 248
100 114
90 91
122 690
126 651
82 96
2 225
41 55
31 32
141 142
98 598
130 667
119 630
23 37
64 465
113 605
123 124
31 288
133 147
115 129
78 467
74 88
64 65
174 175
115 614
44 334
50 414
56 70
156 157
166 180
15 29
5 6
70 490
177 854
96 539
37 313
150 748
59 72
107 121
97 98
116 615
159 833
167 181
195 917
18 290
89 103
189 190
48 62
148 149
92 523
92 105
30 44
140 154
20 247
191 901
40 323
33 46
81 95
29 332
184 880
141 155
49 408
102 563
125 138
16 231
101 607
162 843
22 36
122 123
41 324
95 533
34 47
88 509
164 803
66 79
25 316
78 471
115 609
114 128
174 835
174 188
17 232
87 556
7 20
194 920
55 69
37 308
67 80
51 364
153 757
159 172
8 21
40 53
97 596
63 64
100 113
148 162
4 5
41 54
46 398
23 256
73 86
136 691
119 629
173 838
133 146
16 226
181 195
112 599
14 27
182 923
37 38
78 466
74 87
122 136
115 613
44 333
88 507
104 622
166 179
125 654
47 60
177 853
150 747
37 312
107 120
130 131
159 832
167 180
131 724
18 289
11 12
48 61
64 414
140 153
20 246
163 164
126 654
94 531
44 45
81 94
29 331
83 540
173 833
50 363
190 904
49 407
102 562
129 665
16 230
173 186
22 35
95 532
155 156
25 315
78 470
115 608
114 127
137 138
174 187
96 97
43 332
194 919
18 19
55 68
86 550
88 102
188 189
51 363
147 160
153 756
89 564
148 790
170 171
29 43
180 194
129 130
135 689
97 595
121 135
151 804
111 112
101 556
148 161
111 597
84 491
62 76
46 397
40 326
23 255
100 606
136 690
162 163
119 628
154 168
173 837
144 145
16 225
3 17
162 846
103 104
181 194
112 598
182 922
95 109
85 86
63 413
122 135
195 196
115 612
155 169
60 398
177 178
36 50
125 653
103 616
43 336
136 137
96 110
128 142
118 119
106 630
77 78
79 524
131 723
18 288
21 34
69 83
152 755
169 170
141 764
64 413
118 622
129 143
172 831
161 175
151 152
10 24
75 508
110 111
54 67
102 116
83 539
137 748
173 832
50 362
51 52
22 254
146 159
162 176
190 903
16 229
43 57
143 144
103 117
63 408
87 100
135 149
176 843
179 192
7 247
28 41
43 331
76 90
97 540
86 549
88 101
11 217
136 150
120 133
168 182
36 310
148 789
89 563
180 193
116 666
77 91
61 74
12 218
162 791
121 134
151 803
169 183
101 555
153 166
2 15
111 596
25 26
84 490
62 75
100 605
94 534
94 107
110 124
173 836
154 167
3 16
51 65
35 48
15 228
95 108
17 18
63 412
143 157
164 854
196 923
9 23
24 313
60 397
77 468
36 49
114 606
103 615
43 335
68 81
128 141
160 173
106 629
160 838
79 523
69 82
101 114
141 763
135 692
118 621
145 724
27 323
161 174
10 23
75 507
171 880
111 600
102 115
3 231
39 315
137 747
22 253
65 471
176 177
63 407
135 148
181 920
17 31
117 118
7 246
97 539
114 610
76 89
151 748
109 123
58 59
168 181
177 904
36 309
37 363
117 621
100 550
191 192
50 64
116 665
150 151
152 758
12 217
142 156
162 790
172 834
91 92
59 396
165 804
83 97
84 489
183 184
32 33
175 845
175 189
165 166
24 38
124 125
32 289
84 98
102 613
15 227
116 130
176 846
112 654
65 66
176 190
164 853
196 922
9 22
24 312
57 71
77 467
114 605
157 158
6 7
117 131
38 314
149 163
139 140
117 616
160 837
58 72
42 55
100 554
90 104
190 191
83 492
120 630
39 40
150 164
134 147
182 196
145 723
81 531
172 173
31 45
131 132
155 764
91 105
75 88
171 879
123 137
30 336
3 230
93 523
110 594
72 73
32 46
16 29
103 564
64 78
65 470
164 165
124 138
108 121
139 755
156 170
89 507
79 472
5 19
181 919
185 880
9 255
17 30
62 410
49 62
65 79
97 111
114 609
151 747
195 921
109 122
157 171
38 318
6 20
21 247
177 903
37 362
122 689
117 620
100 549
144 726
50 63
98 112
82 95
142 155
98 597
162 789
130 666
39 53
23 36
27 326
59 395
113 604
31 287
83 96
131 145
115 128
175 844
175 188
24 37
23 310
72 86
50 413
32 288
56 69
102 612
70 489
116 129
38 39
164 178
112 653
116 614
99 552
89 102
178 854
38 313
149 162
71 72
161 792
117 615
30 43
63 77
100 553
90 103
12 13
120 629
2 228
4 18
182 195
104 105
184 879
31 44
64 468
155 763
13 14
41 323
123 136
45 46
3 229
110 593
164 802
105 106
37 51
103 563
64 77
17 231
87 555
37 307
46 47
156 169
78 79
79 471
5 18
96 542
38 52
185 879
9 254
62 409
70 84
116 618
138 139
97 110
195 920
19 20
130 144
79 80
11 25
21 246
38 317
92 526
117 619
71 85
171 172
20 21
191 904
52 53
163 177
12 26
130 665
44 58
81 534
113 603
104 118
101 610
53 54
78 465
174 838
45 59
145 146
50 412
104 621
26 27
137 151
177 852
37 311
86 87
18 32
112 652
89 510
116 613
78 92
159 831
99 551
178 179
27 28
138 152
195 924
178 853
170 184
38 312
19 33
119 120
20 245
63 76
111 125
122 692
126 653
60 61
171 185
2 227
4 17
98 600
52 66
184 878
152 153
102 561
1 2
112 126
31 290
144 158
95 531
164 801
93 94
78 469
115 607
37 50
85 99
44 336
88 510
17 230
103 562
185 186
87 554
145 159
194 918
177 191
70 492
26 40
79 470
96 541
51 362
150 750
9 253
70 83
116 617
118 132
153 755
186 187
195 919
130 143
178 192
97 594
11 24
92 525
119 133
151 165
191 903
46 396
40 325
23 254
136 689
163 176
119 627
44 57
162 845
49 410
104 117
112 597
129 668
152 166
182 921
41 326
25 318
45 58
115 611
93 107
174 837
193 194
50 411
104 620
125 652
137 150
59 60
177 851
96 109
37 310
18 31
116 612
78 91
126 140
18 287
170 183
92 93
64 412
129 142
184 185
111 124
33 34
126 652
25 39
173 831
125 126
50 361
52 65
162 175
184 877
190 902
16 228
34 35
144 157
66 67
103 116
78 468
158 159
7 8
17 229
